p tw 28 193
0 1
0 2
0 13
0 19
0 4
0 22
0 25
0 12
0 21
0 15
0 27
0 17
0 5
0 7
0 6
0 10
0 3
1 2
1 6
1 9
1 8
1 16
1 4
1 15
1 25
1 11
1 12
1 19
1 13
1 17
1 20
1 18
1 10
2 15
2 17
2 11
2 18
2 4
2 10
2 24
2 21
2 20
2 12
2 22
2 25
2 19
2 13
3 4
3 5
3 10
3 18
3 22
3 27
3 20
4 5
4 15
4 22
4 10
4 23
4 8
4 16
4 11
4 17
4 9
4 14
4 26
4 25
4 18
5 9
5 25
5 17
5 26
5 7
5 15
5 13
5 18
5 22
5 14
5 23
5 10
5 27
5 20
6 7
6 8
6 9
6 19
6 16
6 21
6 15
6 25
7 8
7 9
7 12
7 20
7 26
7 15
7 27
7 24
7 10
7 17
7 22
7 14
7 13
8 16
8 9
8 17
8 12
8 19
9 12
9 18
9 25
9 15
9 24
9 10
10 11
10 12
10 20
10 21
10 15
10 27
10 13
10 17
10 19
10 24
10 22
10 18
11 12
11 18
11 16
11 14
11 13
11 20
11 19
12 18
12 21
12 23
12 13
12 25
12 22
12 24
12 17
12 20
12 19
13 14
13 15
13 19
13 20
13 25
13 18
13 24
13 17
14 15
14 16
14 26
14 23
15 17
15 23
15 24
15 27
15 19
15 25
15 16
15 26
16 21
16 19
16 22
16 27
17 19
17 20
17 24
17 25
17 18
17 21
17 22
17 26
18 20
19 20
19 26
19 25
19 23
19 24
20 21
20 26
20 23
20 24
21 23
21 22
21 27
21 24
22 27
23 24
24 25
26 27
